# Solution for model problem_
# Objective value = 4.4891781878631926e+04
x(0_0) 0
x(0_1) 0
x(0_2) 0
x(0_3) 0
x(0_4) 0
x(0_5) 0
x(0_6) 1
x(0_7) 0
x(0_8) 0
x(0_9) 0
x(0_10) 0
x(0_11) 0
x(0_12) 0
x(1_13) 0
x(1_14) 0
x(1_15) 0
x(1_16) 0
x(1_17) 0
x(1_18) 0
x(1_19) 0
x(1_20) 0
x(1_21) 0
x(1_22) 1
x(1_23) 0
x(1_24) 0
x(1_25) 0
x(1_26) 0
x(1_27) 0
x(2_28) 0
x(2_29) 0
x(2_30) 0
x(2_31) 0
x(2_32) 0
x(2_33) 0
x(2_34) 1
x(2_35) 0
x(2_36) 0
x(2_37) 0
x(2_38) 0
x(2_39) 0
x(2_40) 0
x(2_41) 0
x(2_42) 0
x(2_43) 0
x(2_44) 0
x(2_45) 0
x(2_46) 0
x(2_47) 0
x(3_48) 0
x(3_49) 0
x(3_50) 0
x(3_51) 0
x(3_52) 0
x(3_53) 0
x(3_54) 1
x(3_55) 0
x(3_56) 0
x(3_57) 0
x(3_58) 0
x(4_59) 0
x(4_60) 0
x(4_61) 0
x(4_62) 0
x(4_63) 0
x(4_64) 0
x(4_65) 1
x(4_66) 0
x(4_67) 0
x(4_68) 0
x(4_69) 0
x(4_70) 0
x(5_71) 0
x(5_72) 1
x(5_73) 0
x(5_74) 0
x(5_75) 0
x(5_76) 0
x(5_77) 0
x(5_78) 0
x(5_79) 0
x(5_80) 0
x(5_81) 0
x(5_82) 0
x(5_83) 0
x(5_84) 0
x(6_85) 1
x(6_86) 0
x(6_87) 0
x(6_88) 0
x(6_89) 0
x(6_90) 0
x(6_91) 0
x(6_92) 0
x(6_93) 0
x(6_94) 0
x(6_95) 0
x(7_96) 0
x(7_97) 0
x(7_98) 0
x(7_99) 0
x(7_100) 0
x(7_101) 0
x(7_102) 0
x(7_103) 0
x(7_104) 1
x(7_105) 0
x(7_106) 0
x(7_107) 0
x(7_108) 0
x(8_109) 0
x(8_110) 0
x(8_111) 1
x(8_112) 0
x(8_113) 0
x(8_114) 0
x(8_115) 0
x(8_116) 0
x(8_117) 0
x(8_118) 0
x(8_119) 0
x(8_120) 0
x(8_121) 0
x(8_122) 0
x(8_123) 0
x(8_124) 0
x(8_125) 0
x(8_126) 0
x(8_127) 0
x(9_128) 0
x(9_129) 0
x(9_130) 0
x(9_131) 0
x(9_132) 0
x(9_133) 0
x(9_134) 0
x(9_135) 0
x(9_136) 0
x(9_137) 0
x(9_138) 0
x(9_139) 0
x(9_140) 0
x(9_141) 0
x(9_142) 0
x(9_143) 1
x(9_144) 0
x(10_145) 0
x(10_146) 0
x(10_147) 0
x(10_148) 0
x(10_149) 0
x(10_150) 1
x(10_151) 0
x(10_152) 0
x(10_153) 0
x(10_154) 0
x(10_155) 0
x(10_156) 0
x(11_157) 0
x(11_158) 0
x(11_159) 0
x(11_160) 0
x(11_161) 0
x(11_162) 1
x(11_163) 0
x(11_164) 0
x(11_165) 0
x(11_166) 0
x(11_167) 0
x(11_168) 0
x(11_169) 0
x(11_170) 0
x(11_171) 0
x_1_0 6.3510270595550537e+01
s_1_0 0
z_1_0 0
x_1_1 0
s_1_1 6.7231628717854619e-01
z_1_1 1
x_1_2 62.5543532371521
s_1_2 0
z_1_2 0
x_1_3 6.3366188526153564e+01
s_1_3 0
z_1_3 0
x_1_4 6.2752479553222656e+01
s_1_4 0
z_1_4 0
x_1_5 6.3626992702484131e+01
s_1_5 0
z_1_5 0
x_1_6 6.2672299861907959e+01
s_1_6 0
z_1_6 0
x_1_7 6.3095098972320557e+01
s_1_7 0
z_1_7 0
x_1_8 6.3405002117156982e+01
s_1_8 0
z_1_8 0
x_1_9 0
s_1_9 2.5482308911159635e-01
z_1_9 1
x_1_10 0
s_1_10 2.1665739477612078e-01
z_1_10 1
x_1_11 6.2730905532836914e+01
s_1_11 0
z_1_11 0
x_1_12 6.3352519512176514e+01
s_1_12 0
z_1_12 0
x_1_13 6.2753397941589355e+01
s_1_13 0
z_1_13 0
x_1_14 6.2708442687988281e+01
s_1_14 0
z_1_14 0
x_1_15 6.3519882678985596e+01
s_1_15 0
z_1_15 0
x_1_16 6.3587596893310547e+01
s_1_16 0
z_1_16 0
x_1_17 6.2686946392059326e+01
s_1_17 0
z_1_17 0
x_1_18 6.1830675601959229e+01
s_1_18 0
z_1_18 0
x_1_19 6.3532503604888916e+01
s_1_19 0
z_1_19 0
x_1_20 0
s_1_20 2.8792636701837182e-01
z_1_20 1
x_1_21 6.3319414138793945e+01
s_1_21 0
z_1_21 0
x_1_22 0
s_1_22 3.5934183956123888e-01
z_1_22 1
x_1_23 0
s_1_23 7.6911840119282715e-01
z_1_23 1
x_1_24 6.3595780849456787e+01
s_1_24 0
z_1_24 0
x_1_25 6.1694663047790527e+01
s_1_25 0
z_1_25 0
x_1_26 6.3585656642913818e+01
s_1_26 0
z_1_26 0
x_1_27 0
s_1_27 5.0496646924875677e-01
z_1_27 1
x_1_28 64.0220742225647
s_1_28 0
z_1_28 0
x_1_29 6.2204805374145508e+01
s_1_29 0
z_1_29 0
x_1_30 0
s_1_30 0.573480200022459
z_1_30 1
x_1_31 6.3736484050750732e+01
s_1_31 0
z_1_31 0
x_1_32 6.3266777992248535e+01
s_1_32 0
z_1_32 0
x_1_33 0
s_1_33 5.6796775013208389e-01
z_1_33 1
x_1_34 0
s_1_34 2.4510858394205570e-01
z_1_34 1
x_1_35 6.3010027885437012e+01
s_1_35 0
z_1_35 0
x_1_36 6.3719789028167725e+01
s_1_36 0
z_1_36 0
x_1_37 6.3420515537261963e+01
s_1_37 0
z_1_37 0
x_1_38 63.0639066696167
s_1_38 0
z_1_38 0
x_1_39 63.0118465423584
s_1_39 0
z_1_39 0
x_1_40 0
s_1_40 5.1974064577370882e-01
z_1_40 1
x_1_41 6.3110947132110596e+01
s_1_41 0
z_1_41 0
x_1_42 6.2783053874969482e+01
s_1_42 0
z_1_42 0
x_1_43 6.3601343631744385e+01
s_1_43 0
z_1_43 0
x_1_44 6.3096993923187256e+01
s_1_44 0
z_1_44 0
x_1_45 0
s_1_45 2.2870680782943964e-01
z_1_45 1
x_1_46 0
s_1_46 7.5522134359925985e-01
z_1_46 1
x_1_47 6.3114312171936035e+01
s_1_47 0
z_1_47 0
x_1_48 6.3459327697753906e+01
s_1_48 0
z_1_48 0
x_1_49 6.3911069393157959e+01
s_1_49 0
z_1_49 0
x_1_50 6.2951707839965820e+01
s_1_50 0
z_1_50 0
x_1_51 6.2736651897430420e+01
s_1_51 0
z_1_51 0
x_1_52 63.0971155166626
s_1_52 0
z_1_52 0
x_1_53 6.2924592018127441e+01
s_1_53 0
z_1_53 0
x_1_54 6.3537437438964844e+01
s_1_54 0
z_1_54 0
x_1_55 6.3080657958984375e+01
s_1_55 0
z_1_55 0
x_1_56 6.4019729137420654e+01
s_1_56 0
z_1_56 0
x_1_57 6.3541659355163574e+01
s_1_57 0
z_1_57 0
x_1_58 6.3548485755920410e+01
s_1_58 0
z_1_58 0
x_1_59 0
s_1_59 3.4007469378411770e-01
z_1_59 1
x_1_60 0
s_1_60 7.4577267467975616e-01
z_1_60 1
x_1_61 0
s_1_61 3.5123671498149633e-01
z_1_61 1
x_1_62 6.3580956459045410e+01
s_1_62 0
z_1_62 0
x_1_63 0
s_1_63 5.9290252765640616e-01
z_1_63 1
x_1_64 0
s_1_64 0.724663448985666
z_1_64 1
x_1_65 6.3373062133789062e+01
s_1_65 0
z_1_65 0
x_1_66 6.3728807926177979e+01
s_1_66 0
z_1_66 0
x_1_67 6.2932103633880615e+01
s_1_67 0
z_1_67 0
x_1_68 6.3614264011383057e+01
s_1_68 0
z_1_68 0
x_1_69 6.2820212364196777e+01
s_1_69 0
z_1_69 0
x_1_70 0
s_1_70 5.0382483657449484e-01
z_1_70 1
x_1_71 6.3601854801177979e+01
s_1_71 0
z_1_71 0
x_1_72 0
s_1_72 5.1684799906797707e-01
z_1_72 1
x_1_73 6.3180407524108887e+01
s_1_73 0
z_1_73 0
x_1_74 6.3187281608581543e+01
s_1_74 0
z_1_74 0
x_1_75 0
s_1_75 0.590991465607658
z_1_75 1
x_1_76 0
s_1_76 4.6863036416471004e-01
z_1_76 1
x_1_77 0
s_1_77 6.1882241253624670e-01
z_1_77 1
x_1_78 6.3789598464965820e+01
s_1_78 0
z_1_78 0
x_1_79 6.2990044593811035e+01
s_1_79 0
z_1_79 0
x_1_80 0
s_1_80 3.8473116653040051e-01
z_1_80 1
x_1_81 6.3752653121948242e+01
s_1_81 0
z_1_81 0
x_1_82 0
s_1_82 7.2011674288660288e-01
z_1_82 1
x_1_83 0
s_1_83 6.3504584273323417e-01
z_1_83 1
x_1_84 0
s_1_84 5.9788207011297345e-01
z_1_84 1
x_1_85 6.2776016712188721e+01
s_1_85 0
z_1_85 0
x_1_86 63.4990873336792
s_1_86 0
z_1_86 0
x_1_87 6.3813133239746094e+01
s_1_87 0
z_1_87 0
x_1_88 6.3627532005310059e+01
s_1_88 0
z_1_88 0
x_1_89 6.3004280567169189e+01
s_1_89 0
z_1_89 0
x_1_90 6.3099507331848145e+01
s_1_90 0
z_1_90 0
x_1_91 6.3530091285705566e+01
s_1_91 0
z_1_91 0
x_1_92 6.2789361953735352e+01
s_1_92 0
z_1_92 0
x_1_93 6.3123257637023926e+01
s_1_93 0
z_1_93 0
x_1_94 6.3519877433776855e+01
s_1_94 0
z_1_94 0
x_1_95 6.2907001495361328e+01
s_1_95 0
z_1_95 0
x_1_96 6.3277694225311279e+01
s_1_96 0
z_1_96 0
x_1_97 6.3132539749145508e+01
s_1_97 0
z_1_97 0
x_1_98 6.3858975887298584e+01
s_1_98 0
z_1_98 0
x_1_99 6.2896654129028320e+01
s_1_99 0
z_1_99 0
x_1_100 6.3644738674163818e+01
s_1_100 0
z_1_100 0
x_1_101 63.6867094039917
s_1_101 0
z_1_101 0
x_1_102 0
s_1_102 5.0261153187602758e-01
z_1_102 1
x_1_103 0
s_1_103 0.468487071339041
z_1_103 1
x_1_104 63.3866171836853
s_1_104 0
z_1_104 0
x_1_105 0
s_1_105 2.7628069650381804e-01
z_1_105 1
x_1_106 0
s_1_106 8.3070825086906552e-01
z_1_106 1
x_1_107 6.3522069931030273e+01
s_1_107 0
z_1_107 0
x_1_108 6.3017112255096436e+01
s_1_108 0
z_1_108 0
x_1_109 6.3462964534759521e+01
s_1_109 0
z_1_109 0
x_1_110 0
s_1_110 7.9713286552578211e-01
z_1_110 1
x_1_111 6.2987256050109863e+01
s_1_111 0
z_1_111 0
x_1_112 6.2456999778747559e+01
s_1_112 0
z_1_112 0
x_1_113 6.1797675609588623e+01
s_1_113 0
z_1_113 0
x_1_114 0
s_1_114 6.5132617810741067e-01
z_1_114 1
x_1_115 0
s_1_115 3.4744854550808668e-01
z_1_115 1
x_1_116 0
s_1_116 5.0204310964909382e-01
z_1_116 1
x_1_117 6.2003217697143555e+01
s_1_117 0
z_1_117 0
x_1_118 0
s_1_118 5.0295102456584573e-01
z_1_118 1
x_1_119 6.3419709205627441e+01
s_1_119 0
z_1_119 0
x_1_120 6.3734468936920166e+01
s_1_120 0
z_1_120 0
x_1_121 0
s_1_121 7.5271438062191010e-01
z_1_121 1
x_1_122 0
s_1_122 2.7975794511439744e-01
z_1_122 1
x_1_123 0
s_1_123 6.5737086907029152e-01
z_1_123 1
x_1_124 6.3364419937133789e+01
s_1_124 0
z_1_124 0
x_1_125 6.3428629875183105e+01
s_1_125 0
z_1_125 0
x_1_126 0
s_1_126 0.518528962507844
z_1_126 1
x_1_127 0
s_1_127 6.9115235877688974e-01
z_1_127 1
x_1_128 6.3193961620330811e+01
s_1_128 0
z_1_128 0
x_1_129 6.2738312721252441e+01
s_1_129 0
z_1_129 0
x_1_130 6.2768332958221436e+01
s_1_130 0
z_1_130 0
x_1_131 6.3512389659881592e+01
s_1_131 0
z_1_131 0
x_1_132 6.3173311233520508e+01
s_1_132 0
z_1_132 0
x_1_133 6.3741624832153320e+01
s_1_133 0
z_1_133 0
x_1_134 6.3727322101593018e+01
s_1_134 0
z_1_134 0
x_1_135 6.2972141265869141e+01
s_1_135 0
z_1_135 0
x_1_136 0
s_1_136 1.2065958511084318e-01
z_1_136 1
x_1_137 6.2889920711517334e+01
s_1_137 0
z_1_137 0
x_1_138 6.3153697013854980e+01
s_1_138 0
z_1_138 0
x_1_139 6.3527304172515869e+01
s_1_139 0
z_1_139 0
x_1_140 6.2652195930480957e+01
s_1_140 0
z_1_140 0
x_1_141 6.2489299297332764e+01
s_1_141 0
z_1_141 0
x_1_142 6.3373846054077148e+01
s_1_142 0
z_1_142 0
x_1_143 0
s_1_143 6.8454569461755455e-01
z_1_143 1
x_1_144 6.2832937240600586e+01
s_1_144 0
z_1_144 0
x_1_145 6.3351263999938965e+01
s_1_145 0
z_1_145 0
x_1_146 6.2749593734741211e+01
s_1_146 0
z_1_146 0
x_1_147 6.2862704277038574e+01
s_1_147 0
z_1_147 0
x_1_148 6.2766029357910156e+01
s_1_148 0
z_1_148 0
x_1_149 0
s_1_149 6.5393504593521357e-01
z_1_149 1
x_1_150 6.3398737430572510e+01
s_1_150 0
z_1_150 0
x_1_151 0
s_1_151 8.1648520473390818e-01
z_1_151 1
x_1_152 6.2279256343841553e+01
s_1_152 0
z_1_152 0
x_1_153 0
s_1_153 2.1700366036384366e-01
z_1_153 1
x_1_154 0
s_1_154 2.8413174720481038e-01
z_1_154 1
x_1_155 6.3317471981048584e+01
s_1_155 0
z_1_155 0
x_1_156 0
s_1_156 5.5448792851530015e-01
z_1_156 1
x_1_157 6.2696740627288818e+01
s_1_157 0
z_1_157 0
x_1_158 6.2564614295959473e+01
s_1_158 0
z_1_158 0
x_1_159 0
s_1_159 3.9279968221671879e-01
z_1_159 1
x_2_0 4.4732982878631927e+04
